
n_res = 6;
rcap = [35, 33, 35, 34, 952, 878];
rtype = [1, 1, 1, 1, 2, 2];
n_tasks = 50;
modes =  [{1, 2, 3, 4, 5, 6, 7, 8, 9}, {10, 11, 12, 13, 14, 15, 16, 17, 18}, {19, 20, 21, 22, 23, 24, 25, 26, 27}, {28, 29, 30, 31, 32, 33, 34, 35, 36}, {37, 38, 39, 40, 41, 42, 43, 44, 45}, {46, 47, 48, 49, 50, 51, 52, 53, 54}, {55, 56, 57, 58, 59, 60, 61, 62, 63}, {64, 65, 66, 67, 68, 69, 70, 71, 72}, {73, 74, 75, 76, 77, 78, 79, 80, 81}, {82, 83, 84, 85, 86, 87, 88, 89, 90}, {91, 92, 93, 94, 95, 96, 97, 98, 99}, {100, 101, 102, 103, 104, 105, 106, 107, 108}, {109, 110, 111, 112, 113, 114, 115, 116, 117}, {118, 119, 120, 121, 122, 123, 124, 125, 126}, {127, 128, 129, 130, 131, 132, 133, 134, 135}, {136, 137, 138, 139, 140, 141, 142, 143, 144}, {145, 146, 147, 148, 149, 150, 151, 152, 153}, {154, 155, 156, 157, 158, 159, 160, 161, 162}, {163, 164, 165, 166, 167, 168, 169, 170, 171}, {172, 173, 174, 175, 176, 177, 178, 179, 180}, {181, 182, 183, 184, 185, 186, 187, 188, 189}, {190, 191, 192, 193, 194, 195, 196, 197, 198}, {199, 200, 201, 202, 203, 204, 205, 206, 207}, {208, 209, 210, 211, 212, 213, 214, 215, 216}, {217, 218, 219, 220, 221, 222, 223, 224, 225}, {226, 227, 228, 229, 230, 231, 232, 233, 234}, {235, 236, 237, 238, 239, 240, 241, 242, 243}, {244, 245, 246, 247, 248, 249, 250, 251, 252}, {253, 254, 255, 256, 257, 258, 259, 260, 261}, {262, 263, 264, 265, 266, 267, 268, 269, 270}, {271, 272, 273, 274, 275, 276, 277, 278, 279}, {280, 281, 282, 283, 284, 285, 286, 287, 288}, {289, 290, 291, 292, 293, 294, 295, 296, 297}, {298, 299, 300, 301, 302, 303, 304, 305, 306}, {307, 308, 309, 310, 311, 312, 313, 314, 315}, {316, 317, 318, 319, 320, 321, 322, 323, 324}, {325, 326, 327, 328, 329, 330, 331, 332, 333}, {334, 335, 336, 337, 338, 339, 340, 341, 342}, {343, 344, 345, 346, 347, 348, 349, 350, 351}, {352, 353, 354, 355, 356, 357, 358, 359, 360}, {361, 362, 363, 364, 365, 366, 367, 368, 369}, {370, 371, 372, 373, 374, 375, 376, 377, 378}, {379, 380, 381, 382, 383, 384, 385, 386, 387}, {388, 389, 390, 391, 392, 393, 394, 395, 396}, {397, 398, 399, 400, 401, 402, 403, 404, 405}, {406, 407, 408, 409, 410, 411, 412, 413, 414}, {415, 416, 417, 418, 419, 420, 421, 422, 423}, {424, 425, 426, 427, 428, 429, 430, 431, 432}, {433, 434, 435, 436, 437, 438, 439, 440, 441}, {442, 443, 444, 445, 446, 447, 448, 449, 450}];
succ =  [{48, 47, 46, 44, 33, 32, 31, 24, 22, 21, 18, 17}, {49, 48, 47, 45, 44, 42, 38, 31, 28, 26, 25, 20}, {47, 45, 44, 41, 33, 32, 31, 30, 26, 25, 20}, {50, 47, 46, 45, 44, 41, 40, 31, 29, 28, 27, 24}, {44, 31, 24, 21, 20, 18}, {48, 45, 44, 39, 38, 36, 33, 30, 20}, {46, 45, 43, 40, 39, 31, 30, 27, 24}, {46, 44, 41, 38, 26, 24, 18}, {47, 45, 44, 42, 41, 40, 39, 38, 37, 34, 26}, {50, 47, 46, 45, 41, 40, 37, 36, 29, 27}, {49, 47, 44, 43, 40, 37, 36, 29, 27}, {44, 41, 40, 37, 36, 35, 34, 32, 28}, {46, 44, 41, 37, 34, 28, 26, 25}, {44, 42, 41, 37, 36, 29, 27}, {40, 38, 37, 30, 29, 24}, {47, 45, 41, 39, 38, 37, 36, 35, 34}, {41, 39, 37, 36, 34, 30, 27}, {42, 40, 39, 36, 30, 29}, {43, 42, 39, 37, 36, 29}, {46, 43, 40, 35, 29}, {45, 41, 38, 37, 36}, {39, 34, 26}, {45, 42, 38, 34}, {42, 36, 34}, {43, 39, 35}, {36, 35}, {38, 35}, {43, 39}, {34}, {35}, {37}, {38}, {37}, {}, {}, {}, {}, {}, {}, {}, {}, {}, {}, {}, {}, {}, {}, {}, {}, {}];
n_opt = 450;
dur = [5, 9, 10, 11, 12, 14, 18, 19, 20, 3, 12, 13, 20, 21, 22, 23, 24, 30, 5, 6, 9, 11, 19, 22, 23, 25, 28, 2, 4, 5, 7, 13, 16, 22, 23, 24, 8, 9, 11, 16, 17, 22, 25, 26, 28, 1, 6, 7, 8, 11, 12, 15, 28, 30, 3, 6, 13, 15, 16, 23, 28, 29, 30, 2, 5, 6, 7, 8, 18, 20, 21, 25, 4, 6, 7, 13, 14, 16, 17, 21, 23, 1, 2, 6, 9, 13, 15, 16, 22, 24, 1, 2, 3, 7, 15, 16, 19, 23, 27, 5, 9, 13, 14, 15, 16, 20, 27, 30, 5, 6, 12, 13, 14, 15, 25, 27, 30, 2, 4, 12, 15, 17, 27, 28, 29, 30, 1, 5, 6, 8, 22, 23, 26, 27, 30, 6, 7, 8, 10, 15, 17, 18, 23, 26, 6, 7, 8, 9, 17, 19, 20, 22, 25, 3, 5, 7, 8, 9, 11, 19, 29, 30, 1, 3, 11, 12, 14, 18, 21, 25, 29, 5, 6, 11, 13, 16, 23, 25, 26, 27, 4, 8, 9, 12, 17, 21, 28, 29, 30, 2, 3, 4, 6, 9, 11, 23, 24, 25, 2, 3, 4, 7, 19, 20, 21, 27, 29, 4, 10, 11, 12, 22, 23, 24, 25, 30, 6, 7, 9, 10, 12, 14, 15, 28, 29, 2, 6, 18, 19, 20, 21, 22, 24, 30, 5, 6, 7, 10, 11, 22, 23, 24, 26, 5, 6, 7, 10, 11, 17, 21, 22, 24, 1, 7, 14, 15, 16, 18, 19, 24, 26, 3, 15, 18, 22, 23, 24, 25, 27, 28, 1, 3, 4, 5, 6, 12, 22, 24, 28, 3, 4, 7, 8, 9, 10, 17, 21, 26, 5, 8, 9, 11, 12, 13, 14, 15, 19, 3, 6, 8, 9, 13, 14, 18, 21, 26, 7, 19, 20, 21, 22, 23, 27, 28, 29, 14, 15, 16, 17, 18, 19, 20, 22, 28, 4, 5, 6, 7, 15, 16, 19, 23, 26, 3, 5, 10, 13, 14, 22, 23, 24, 29, 4, 5, 8, 10, 16, 23, 24, 25, 26, 6, 8, 9, 10, 17, 21, 22, 23, 28, 11, 12, 15, 16, 17, 25, 27, 29, 30, 1, 5, 10, 11, 22, 25, 27, 28, 29, 2, 3, 7, 8, 17, 21, 23, 25, 28, 1, 2, 6, 9, 15, 23, 24, 26, 30, 7, 9, 12, 18, 19, 26, 27, 28, 29, 5, 8, 12, 13, 17, 20, 22, 24, 30, 7, 10, 12, 14, 20, 21, 25, 27, 28, 10, 11, 14, 15, 16, 17, 24, 28, 30, 8, 9, 10, 12, 13, 18, 19, 28, 29, 7, 14, 16, 23, 26, 27, 28, 29, 30];
rreq = [|3, 3, 3, 3, 3, 3, 3, 3, 3, 4, 3, 3, 3, 3, 3, 3, 3, 3, 3, 2, 2, 2, 1, 1, 1, 1, 1, 2, 2, 2, 2, 2, 2, 2, 2, 2, 3, 3, 3, 3, 2, 2, 2, 1, 1, 4, 3, 3, 3, 2, 2, 2, 2, 2, 5, 4, 4, 3, 3, 3, 3, 2, 2, 5, 4, 4, 4, 4, 3, 3, 3, 3, 4, 4, 4, 4, 4, 4, 4, 4, 4, 2, 1, 1, 1, 1, 1, 1, 1, 1, 5, 5, 5, 5, 5, 5, 5, 5, 5, 5, 4, 4, 4, 4, 4, 4, 4, 4, 3, 2, 2, 2, 2, 1, 1, 1, 1, 3, 2, 2, 2, 2, 1, 1, 1, 1, 5, 4, 4, 4, 3, 3, 2, 2, 2, 4, 4, 4, 4, 4, 4, 4, 4, 4, 3, 3, 3, 3, 2, 2, 1, 1, 1, 5, 4, 4, 4, 3, 3, 2, 2, 2, 4, 4, 4, 3, 3, 2, 2, 1, 1, 1, 1, 1, 1, 1, 1, 1, 1, 1, 2, 2, 2, 2, 2, 2, 2, 2, 2, 1, 1, 1, 1, 1, 1, 1, 1, 1, 1, 1, 1, 1, 1, 1, 1, 1, 1, 5, 4, 4, 4, 4, 3, 3, 3, 3, 5, 4, 4, 4, 3, 3, 3, 3, 3, 1, 1, 1, 1, 1, 1, 1, 1, 1, 1, 1, 1, 1, 1, 1, 1, 1, 1, 1, 1, 1, 1, 1, 1, 1, 1, 1, 2, 2, 2, 2, 1, 1, 1, 1, 1, 4, 3, 3, 3, 2, 2, 2, 2, 2, 4, 4, 4, 4, 3, 3, 2, 2, 2, 5, 4, 3, 3, 2, 2, 2, 1, 1, 4, 3, 3, 2, 2, 2, 2, 1, 1, 3, 3, 3, 3, 3, 3, 3, 3, 3, 5, 5, 5, 5, 5, 5, 5, 5, 5, 1, 1, 1, 1, 1, 1, 1, 1, 1, 4, 4, 4, 3, 3, 3, 3, 2, 2, 5, 4, 4, 4, 3, 3, 3, 3, 3, 4, 4, 4, 4, 3, 3, 3, 2, 2, 5, 4, 3, 3, 3, 2, 1, 1, 1, 5, 4, 4, 4, 4, 4, 4, 4, 4, 5, 4, 4, 3, 3, 3, 3, 2, 2, 5, 5, 5, 5, 5, 5, 5, 5, 5, 3, 3, 3, 3, 2, 2, 2, 2, 2, 4, 4, 4, 4, 4, 3, 3, 3, 3, 1, 1, 1, 1, 1, 1, 1, 1, 1, 4, 4, 3, 3, 3, 2, 1, 1, 1, 4, 4, 3, 3, 2, 2, 1, 1, 1, 3, 3, 3, 3, 3, 3, 3, 3, 3, 5, 4, 4, 4, 3, 3, 3, 3, 3
 |4, 3, 3, 2, 2, 2, 2, 1, 1, 4, 4, 4, 3, 3, 3, 2, 2, 2, 5, 4, 4, 4, 3, 3, 3, 3, 3, 5, 4, 3, 3, 3, 2, 1, 1, 1, 3, 3, 3, 3, 3, 3, 3, 3, 3, 4, 4, 4, 4, 4, 4, 4, 4, 4, 4, 4, 4, 4, 3, 3, 3, 3, 3, 4, 3, 3, 3, 3, 3, 3, 3, 3, 3, 3, 3, 3, 2, 2, 2, 2, 2, 2, 2, 2, 2, 2, 2, 2, 2, 2, 4, 3, 3, 3, 2, 2, 2, 1, 1, 4, 4, 4, 4, 3, 3, 3, 3, 3, 4, 4, 3, 3, 2, 2, 2, 1, 1, 1, 1, 1, 1, 1, 1, 1, 1, 1, 2, 2, 2, 2, 2, 1, 1, 1, 1, 3, 2, 2, 2, 2, 1, 1, 1, 1, 5, 4, 4, 3, 3, 2, 1, 1, 1, 3, 3, 3, 3, 3, 3, 3, 3, 3, 2, 2, 2, 2, 2, 2, 2, 2, 2, 5, 4, 4, 4, 4, 4, 4, 4, 4, 4, 3, 3, 3, 2, 2, 2, 1, 1, 4, 4, 4, 4, 4, 4, 4, 4, 4, 4, 4, 4, 3, 3, 3, 3, 2, 2, 3, 2, 2, 2, 2, 2, 2, 2, 2, 2, 2, 2, 2, 2, 2, 2, 2, 2, 4, 4, 4, 4, 4, 4, 4, 4, 4, 4, 3, 3, 2, 2, 2, 2, 1, 1, 3, 3, 3, 3, 3, 3, 3, 3, 3, 5, 5, 5, 5, 5, 5, 5, 5, 5, 5, 5, 5, 5, 5, 5, 5, 5, 5, 5, 4, 4, 3, 3, 3, 2, 2, 2, 3, 2, 2, 2, 1, 1, 1, 1, 1, 3, 3, 3, 3, 2, 2, 2, 2, 2, 4, 4, 4, 3, 3, 3, 2, 2, 2, 5, 4, 4, 4, 3, 3, 3, 3, 3, 1, 1, 1, 1, 1, 1, 1, 1, 1, 2, 2, 2, 2, 2, 2, 2, 2, 2, 3, 3, 3, 2, 2, 2, 2, 1, 1, 4, 4, 4, 3, 3, 3, 2, 2, 2, 4, 4, 4, 4, 4, 4, 4, 4, 4, 4, 4, 4, 4, 3, 3, 3, 3, 3, 5, 4, 4, 3, 3, 3, 3, 2, 2, 5, 4, 4, 4, 4, 4, 4, 4, 4, 4, 4, 4, 4, 4, 4, 4, 4, 4, 4, 4, 4, 4, 4, 4, 4, 4, 4, 4, 4, 4, 4, 3, 3, 3, 3, 3, 2, 1, 1, 1, 1, 1, 1, 1, 1, 4, 3, 3, 3, 3, 2, 2, 2, 2, 5, 4, 4, 4, 4, 4, 4, 4, 4, 3, 2, 2, 2, 2, 2, 2, 2, 2
 |2, 2, 2, 2, 2, 2, 2, 2, 2, 3, 3, 3, 3, 2, 2, 2, 1, 1, 3, 3, 3, 3, 2, 2, 2, 1, 1, 5, 4, 4, 4, 3, 3, 3, 3, 3, 5, 4, 4, 3, 3, 3, 2, 2, 2, 4, 4, 4, 3, 3, 2, 2, 1, 1, 1, 1, 1, 1, 1, 1, 1, 1, 1, 2, 2, 2, 2, 2, 2, 2, 2, 2, 1, 1, 1, 1, 1, 1, 1, 1, 1, 4, 3, 3, 3, 2, 2, 2, 2, 2, 4, 4, 4, 3, 3, 2, 2, 1, 1, 4, 4, 4, 3, 3, 3, 3, 2, 2, 5, 4, 4, 4, 4, 3, 3, 3, 3, 3, 2, 2, 2, 2, 2, 2, 2, 2, 5, 4, 4, 4, 3, 3, 3, 3, 3, 5, 4, 4, 4, 3, 3, 3, 3, 3, 3, 2, 2, 2, 1, 1, 1, 1, 1, 4, 4, 4, 3, 3, 3, 2, 2, 2, 4, 3, 3, 3, 3, 2, 2, 2, 2, 4, 4, 4, 3, 3, 3, 3, 2, 2, 4, 3, 3, 3, 2, 2, 2, 2, 2, 4, 4, 4, 4, 3, 3, 3, 3, 3, 5, 4, 4, 3, 3, 2, 2, 1, 1, 4, 4, 4, 4, 4, 4, 4, 4, 4, 4, 4, 4, 4, 3, 3, 3, 2, 2, 2, 2, 2, 2, 2, 2, 2, 2, 2, 4, 3, 3, 3, 2, 2, 2, 2, 2, 2, 2, 2, 2, 2, 1, 1, 1, 1, 4, 4, 4, 4, 4, 3, 3, 3, 3, 4, 4, 4, 4, 4, 4, 4, 4, 4, 2, 2, 2, 2, 2, 2, 2, 2, 2, 4, 4, 4, 4, 4, 4, 4, 4, 4, 4, 4, 4, 3, 3, 3, 2, 2, 2, 5, 4, 4, 4, 4, 4, 4, 4, 4, 3, 3, 3, 3, 2, 2, 2, 2, 2, 5, 4, 4, 3, 2, 2, 2, 1, 1, 5, 4, 4, 4, 4, 4, 4, 4, 4, 4, 3, 3, 3, 2, 2, 2, 2, 2, 4, 4, 4, 4, 3, 3, 2, 2, 2, 3, 2, 2, 2, 2, 2, 2, 2, 2, 3, 2, 2, 2, 2, 1, 1, 1, 1, 3, 3, 3, 3, 2, 2, 2, 2, 2, 4, 3, 3, 3, 3, 3, 3, 3, 3, 3, 2, 2, 2, 2, 2, 2, 2, 2, 1, 1, 1, 1, 1, 1, 1, 1, 1, 5, 4, 4, 4, 4, 3, 3, 3, 3, 3, 3, 3, 2, 2, 2, 1, 1, 1, 2, 2, 2, 2, 2, 2, 2, 2, 2, 4, 4, 4, 4, 4, 4, 4, 4, 4, 3, 3, 3, 3, 3, 3, 3, 3, 3
 |4, 4, 3, 3, 2, 2, 2, 1, 1, 3, 2, 2, 2, 2, 1, 1, 1, 1, 4, 4, 4, 3, 3, 3, 2, 2, 2, 4, 4, 4, 4, 4, 4, 4, 4, 4, 5, 4, 4, 4, 3, 3, 3, 3, 3, 5, 4, 4, 4, 4, 4, 4, 4, 4, 4, 4, 4, 4, 3, 3, 3, 3, 3, 1, 1, 1, 1, 1, 1, 1, 1, 1, 2, 2, 2, 2, 1, 1, 1, 1, 1, 2, 2, 2, 2, 2, 2, 2, 2, 2, 3, 2, 2, 2, 2, 2, 2, 2, 2, 3, 3, 3, 3, 3, 3, 3, 3, 3, 4, 4, 3, 3, 2, 2, 1, 1, 1, 4, 3, 3, 3, 3, 3, 3, 3, 3, 4, 4, 4, 4, 3, 3, 2, 2, 2, 4, 4, 4, 3, 3, 3, 2, 2, 2, 5, 4, 4, 3, 3, 2, 1, 1, 1, 3, 3, 3, 3, 2, 2, 2, 1, 1, 4, 4, 4, 4, 4, 4, 4, 4, 4, 5, 4, 4, 4, 4, 3, 3, 3, 3, 4, 4, 3, 3, 3, 2, 1, 1, 1, 4, 3, 3, 3, 2, 2, 1, 1, 1, 4, 4, 4, 4, 4, 4, 4, 4, 4, 3, 3, 3, 3, 3, 2, 2, 2, 2, 5, 4, 4, 4, 3, 3, 3, 3, 3, 5, 4, 4, 3, 3, 3, 2, 2, 2, 4, 4, 4, 4, 4, 4, 4, 4, 4, 4, 4, 4, 4, 4, 4, 4, 4, 4, 3, 3, 3, 3, 3, 3, 3, 3, 3, 5, 5, 5, 5, 5, 5, 5, 5, 5, 4, 3, 3, 2, 2, 2, 1, 1, 1, 4, 4, 4, 4, 4, 4, 4, 4, 4, 3, 3, 3, 3, 3, 3, 3, 3, 3, 4, 3, 3, 3, 2, 2, 2, 2, 2, 2, 2, 2, 2, 2, 2, 2, 2, 2, 5, 5, 5, 5, 5, 5, 5, 5, 5, 3, 3, 3, 3, 2, 2, 2, 1, 1, 2, 2, 2, 2, 1, 1, 1, 1, 1, 4, 3, 3, 3, 3, 3, 3, 3, 3, 4, 3, 3, 3, 2, 2, 1, 1, 1, 3, 2, 2, 2, 1, 1, 1, 1, 1, 5, 4, 4, 4, 4, 4, 4, 4, 4, 2, 2, 2, 2, 2, 2, 2, 2, 2, 1, 1, 1, 1, 1, 1, 1, 1, 1, 5, 4, 4, 3, 2, 2, 1, 1, 1, 1, 1, 1, 1, 1, 1, 1, 1, 1, 3, 2, 2, 2, 1, 1, 1, 1, 1, 5, 4, 4, 4, 3, 3, 3, 3, 3, 2, 2, 2, 2, 2, 2, 2, 2, 2, 2, 2, 2, 2, 2, 2, 2, 2, 2
 |22, 21, 20, 17, 15, 14, 14, 11, 10, 29, 28, 27, 27, 25, 24, 24, 22, 22, 25, 21, 21, 19, 16, 14, 12, 11, 7, 23, 21, 18, 16, 15, 15, 13, 11, 9, 25, 25, 24, 24, 23, 23, 22, 21, 21, 25, 23, 20, 19, 17, 15, 13, 11, 9, 18, 18, 18, 18, 18, 18, 18, 18, 18, 22, 21, 20, 16, 13, 13, 10, 8, 5, 27, 25, 20, 17, 16, 12, 11, 7, 7, 22, 20, 16, 15, 13, 11, 10, 7, 7, 18, 18, 18, 18, 18, 17, 17, 17, 17, 5, 4, 4, 3, 3, 3, 3, 2, 2, 18, 16, 15, 14, 14, 12, 11, 10, 10, 29, 27, 26, 25, 25, 25, 23, 23, 22, 20, 18, 16, 14, 11, 9, 8, 5, 3, 17, 15, 15, 13, 12, 11, 11, 9, 9, 27, 24, 21, 20, 19, 17, 15, 11, 11, 21, 19, 18, 18, 15, 15, 12, 12, 9, 24, 23, 22, 18, 18, 16, 13, 10, 10, 22, 20, 18, 16, 15, 15, 13, 11, 10, 14, 13, 10, 9, 9, 6, 6, 4, 2, 24, 21, 19, 18, 17, 15, 13, 10, 8, 20, 17, 14, 13, 10, 10, 8, 6, 2, 21, 18, 18, 15, 14, 12, 10, 7, 7, 19, 19, 18, 17, 17, 17, 16, 16, 15, 24, 24, 23, 22, 19, 19, 17, 17, 16, 24, 21, 17, 16, 12, 10, 8, 3, 3, 22, 21, 21, 20, 20, 20, 19, 19, 19, 11, 11, 11, 11, 10, 10, 10, 10, 10, 22, 20, 19, 17, 15, 14, 10, 10, 8, 21, 19, 16, 16, 14, 11, 9, 8, 7, 29, 28, 28, 27, 27, 27, 27, 26, 26, 21, 18, 17, 16, 14, 13, 13, 11, 10, 18, 16, 16, 15, 15, 15, 14, 13, 13, 28, 27, 26, 26, 25, 23, 22, 22, 21, 28, 28, 27, 26, 25, 25, 24, 24, 23, 25, 24, 21, 21, 19, 16, 16, 13, 11, 27, 25, 24, 24, 21, 20, 20, 19, 17, 24, 23, 23, 22, 21, 20, 19, 18, 17, 26, 25, 23, 23, 22, 20, 19, 19, 18, 21, 20, 20, 20, 20, 20, 20, 20, 20, 23, 20, 19, 19, 18, 15, 14, 13, 12, 16, 15, 15, 14, 14, 14, 14, 13, 13, 19, 17, 16, 16, 14, 13, 13, 11, 10, 24, 21, 20, 15, 12, 10, 6, 4, 1, 20, 18, 18, 18, 17, 17, 16, 15, 15, 27, 27, 26, 25, 24, 23, 21, 20, 20, 14, 13, 12, 11, 11, 10, 10, 10, 9, 21, 17, 16, 15, 10, 10, 6, 4, 2, 5, 4, 4, 4, 4, 4, 4, 4, 4
 |10, 9, 8, 7, 5, 4, 3, 2, 1, 11, 11, 10, 9, 8, 8, 8, 7, 6, 25, 25, 19, 16, 13, 10, 7, 7, 2, 26, 26, 21, 19, 14, 14, 8, 5, 5, 28, 26, 22, 20, 18, 16, 11, 9, 6, 26, 22, 20, 16, 15, 11, 7, 6, 4, 4, 4, 3, 4, 4, 3, 2, 4, 3, 25, 24, 24, 22, 22, 20, 18, 17, 16, 10, 10, 10, 10, 10, 9, 9, 9, 8, 28, 27, 25, 24, 20, 19, 18, 15, 14, 22, 22, 20, 19, 18, 16, 14, 13, 12, 13, 12, 11, 10, 9, 7, 6, 4, 3, 19, 17, 15, 13, 12, 11, 10, 7, 6, 22, 19, 18, 16, 14, 13, 12, 11, 10, 27, 26, 26, 26, 26, 26, 26, 26, 26, 27, 28, 27, 27, 26, 26, 26, 26, 25, 18, 17, 16, 13, 10, 8, 7, 5, 2, 25, 23, 22, 21, 20, 19, 19, 17, 17, 9, 7, 6, 6, 4, 4, 3, 2, 1, 30, 25, 20, 19, 15, 11, 8, 7, 2, 16, 16, 16, 16, 16, 16, 16, 16, 16, 22, 22, 20, 20, 19, 17, 16, 16, 15, 27, 24, 22, 21, 20, 17, 13, 13, 10, 24, 23, 22, 23, 22, 22, 22, 22, 21, 26, 25, 25, 25, 24, 23, 24, 23, 23, 15, 14, 14, 13, 12, 11, 11, 10, 11, 14, 13, 12, 12, 12, 11, 11, 10, 9, 25, 22, 18, 16, 13, 13, 8, 6, 5, 23, 22, 21, 20, 21, 20, 19, 18, 17, 13, 12, 12, 12, 12, 12, 12, 11, 12, 25, 24, 24, 22, 22, 22, 21, 19, 19, 5, 4, 4, 4, 3, 2, 1, 2, 1, 23, 20, 20, 19, 18, 15, 14, 14, 12, 13, 13, 11, 9, 8, 6, 5, 2, 1, 19, 19, 18, 17, 17, 16, 16, 15, 15, 23, 23, 19, 16, 13, 10, 10, 7, 4, 21, 20, 20, 19, 19, 18, 17, 16, 16, 24, 23, 21, 19, 18, 16, 15, 13, 11, 29, 24, 21, 19, 19, 15, 11, 9, 7, 12, 11, 11, 10, 10, 10, 9, 8, 9, 29, 26, 20, 19, 15, 13, 8, 6, 4, 26, 25, 25, 25, 24, 24, 23, 23, 23, 16, 15, 14, 15, 14, 13, 12, 13, 12, 27, 26, 24, 23, 22, 20, 19, 18, 18, 6, 5, 5, 5, 4, 4, 4, 3, 3, 29, 25, 23, 22, 21, 18, 16, 15, 12, 7, 7, 5, 4, 4, 4, 3, 2, 1, 27, 27, 25, 25, 23, 22, 21, 18, 18, 18, 17, 13, 11, 11, 7, 7, 5, 3, 11, 10, 9, 8, 10, 9, 8, 7, 6|];